p cnf 484 1
484 0
w 1 0.323689
w 2 1 1
w 2 -1 0
w 3 2 0.852197
w 3 -2 0.354391
w 4 3 1
w 4 -3 0
w 5 4 1
w 5 -4 0
w 6 5 1
w 6 -5 0
w 7 6 1
w 7 -6 0
w 8 7 1
w 8 -7 0
w 9 8 1
w 9 -8 0
w 10 9 1
w 10 -9 0
w 11 10 0.0248298
w 11 -10 0.904381
w 12 11 0
w 12 -11 1
w 13 12 0
w 13 -12 1
w 14 13 0
w 14 -13 1
w 15 14 0.593083
w 15 -14 0.103909
w 16 15 1
w 16 -15 0
w 17 16 0.152035
w 17 -16 0.578757
w 18 17 1
w 18 -17 0
w 19 18 1
w 19 -18 0
w 20 19 1
w 20 -19 0
w 21 20 1
w 21 -20 0
w 22 21 1
w 22 -21 0
w 23 1 1
w 23 -1 0
w 24 23 2 0
w 24 23 -2 1
w 24 -23 2 0
w 24 -23 -2 0
w 25 24 3 0
w 25 24 -3 1
w 25 -24 3 0
w 25 -24 -3 1
w 26 25 4 1
w 26 25 -4 1
w 26 -25 4 0
w 26 -25 -4 1
w 27 26 5 1
w 27 26 -5 1
w 27 -26 5 0
w 27 -26 -5 0
w 28 27 6 0.89043
w 28 27 -6 0.272722
w 28 -27 6 0.577786
w 28 -27 -6 0.593889
w 29 28 7 1
w 29 28 -7 1
w 29 -28 7 1
w 29 -28 -7 0
w 30 29 8 0.793588
w 30 29 -8 0.008713
w 30 -29 8 0.611149
w 30 -29 -8 0.546167
w 31 30 9 0
w 31 30 -9 0
w 31 -30 9 0
w 31 -30 -9 1
w 32 31 10 0.839274
w 32 31 -10 0.163754
w 32 -31 10 0.723903
w 32 -31 -10 0.608313
w 33 32 11 1
w 33 32 -11 1
w 33 -32 11 0
w 33 -32 -11 1
w 34 33 12 0
w 34 33 -12 1
w 34 -33 12 1
w 34 -33 -12 1
w 35 34 13 0
w 35 34 -13 0
w 35 -34 13 1
w 35 -34 -13 0
w 36 35 14 0
w 36 35 -14 1
w 36 -35 14 0
w 36 -35 -14 0
w 37 36 15 0.329793
w 37 36 -15 0.764909
w 37 -36 15 0.174256
w 37 -36 -15 0.444963
w 38 37 16 0
w 38 37 -16 1
w 38 -37 16 1
w 38 -37 -16 1
w 39 38 17 0
w 39 38 -17 0
w 39 -38 17 1
w 39 -38 -17 0
w 40 39 18 1
w 40 39 -18 1
w 40 -39 18 1
w 40 -39 -18 0
w 41 40 19 0
w 41 40 -19 0
w 41 -40 19 1
w 41 -40 -19 0
w 42 41 20 1
w 42 41 -20 1
w 42 -41 20 0
w 42 -41 -20 1
w 43 42 21 0
w 43 42 -21 1
w 43 -42 21 1
w 43 -42 -21 1
w 44 43 22 1
w 44 43 -22 0
w 44 -43 22 1
w 44 -43 -22 0
w 45 23 0.903224
w 45 -23 0.306545
w 46 45 24 1
w 46 45 -24 1
w 46 -45 24 1
w 46 -45 -24 0
w 47 46 25 1
w 47 46 -25 0
w 47 -46 25 0
w 47 -46 -25 0
w 48 47 26 1
w 48 47 -26 1
w 48 -47 26 0
w 48 -47 -26 0
w 49 48 27 1
w 49 48 -27 0
w 49 -48 27 0
w 49 -48 -27 0
w 50 49 28 1
w 50 49 -28 1
w 50 -49 28 1
w 50 -49 -28 0
w 51 50 29 1
w 51 50 -29 1
w 51 -50 29 1
w 51 -50 -29 0
w 52 51 30 1
w 52 51 -30 1
w 52 -51 30 0
w 52 -51 -30 1
w 53 52 31 1
w 53 52 -31 1
w 53 -52 31 0
w 53 -52 -31 1
w 54 53 32 1
w 54 53 -32 0
w 54 -53 32 0
w 54 -53 -32 1
w 55 54 33 0
w 55 54 -33 1
w 55 -54 33 1
w 55 -54 -33 0
w 56 55 34 0.419257
w 56 55 -34 0.644354
w 56 -55 34 0.917995
w 56 -55 -34 0.887625
w 57 56 35 0.945032
w 57 56 -35 0.511308
w 57 -56 35 0.950295
w 57 -56 -35 0.875293
w 58 57 36 1
w 58 57 -36 0
w 58 -57 36 1
w 58 -57 -36 1
w 59 58 37 1
w 59 58 -37 0
w 59 -58 37 1
w 59 -58 -37 0
w 60 59 38 1
w 60 59 -38 1
w 60 -59 38 0
w 60 -59 -38 0
w 61 60 39 1
w 61 60 -39 0
w 61 -60 39 0
w 61 -60 -39 1
w 62 61 40 1
w 62 61 -40 0
w 62 -61 40 1
w 62 -61 -40 0
w 63 62 41 1
w 63 62 -41 0
w 63 -62 41 1
w 63 -62 -41 1
w 64 63 42 1
w 64 63 -42 0
w 64 -63 42 1
w 64 -63 -42 1
w 65 64 43 0.188928
w 65 64 -43 0.361544
w 65 -64 43 0.0736371
w 65 -64 -43 0.253186
w 66 65 44 0
w 66 65 -44 1
w 66 -65 44 0
w 66 -65 -44 0
w 67 45 0.779192
w 67 -45 0.806308
w 68 67 46 0.541544
w 68 67 -46 0.914537
w 68 -67 46 0.474829
w 68 -67 -46 0.297757
w 69 68 47 0
w 69 68 -47 1
w 69 -68 47 1
w 69 -68 -47 1
w 70 69 48 0
w 70 69 -48 1
w 70 -69 48 0
w 70 -69 -48 0
w 71 70 49 0.633669
w 71 70 -49 0.808955
w 71 -70 49 0.752098
w 71 -70 -49 0.822597
w 72 71 50 1
w 72 71 -50 1
w 72 -71 50 0
w 72 -71 -50 1
w 73 72 51 0
w 73 72 -51 1
w 73 -72 51 1
w 73 -72 -51 1
w 74 73 52 0
w 74 73 -52 0
w 74 -73 52 0
w 74 -73 -52 1
w 75 74 53 0.799011
w 75 74 -53 0.378345
w 75 -74 53 0.84067
w 75 -74 -53 0.656145
w 76 75 54 0.431874
w 76 75 -54 0.439699
w 76 -75 54 0.395919
w 76 -75 -54 0.517611
w 77 76 55 1
w 77 76 -55 0
w 77 -76 55 0
w 77 -76 -55 0
w 78 77 56 0.570663
w 78 77 -56 0.734177
w 78 -77 56 0.0496594
w 78 -77 -56 0.043938
w 79 78 57 0
w 79 78 -57 1
w 79 -78 57 1
w 79 -78 -57 1
w 80 79 58 0
w 80 79 -58 1
w 80 -79 58 1
w 80 -79 -58 1
w 81 80 59 0.422473
w 81 80 -59 0.200437
w 81 -80 59 0.603881
w 81 -80 -59 0.0786186
w 82 81 60 1
w 82 81 -60 0
w 82 -81 60 1
w 82 -81 -60 0
w 83 82 61 0
w 83 82 -61 0
w 83 -82 61 1
w 83 -82 -61 0
w 84 83 62 1
w 84 83 -62 1
w 84 -83 62 0
w 84 -83 -62 0
w 85 84 63 0
w 85 84 -63 0
w 85 -84 63 1
w 85 -84 -63 0
w 86 85 64 0
w 86 85 -64 1
w 86 -85 64 1
w 86 -85 -64 1
w 87 86 65 0.399714
w 87 86 -65 0.658347
w 87 -86 65 0.034479
w 87 -86 -65 0.00359554
w 88 87 66 1
w 88 87 -66 0
w 88 -87 66 0
w 88 -87 -66 1
w 89 67 0
w 89 -67 1
w 90 89 68 0
w 90 89 -68 1
w 90 -89 68 0
w 90 -89 -68 0
w 91 90 69 0.333974
w 91 90 -69 0.704066
w 91 -90 69 0.0791404
w 91 -90 -69 0.855884
w 92 91 70 0.497582
w 92 91 -70 0.201819
w 92 -91 70 0.844992
w 92 -91 -70 0.239579
w 93 92 71 0.856943
w 93 92 -71 0.876082
w 93 -92 71 0.0501038
w 93 -92 -71 0.690986
w 94 93 72 0
w 94 93 -72 1
w 94 -93 72 0
w 94 -93 -72 0
w 95 94 73 0.318743
w 95 94 -73 0.700701
w 95 -94 73 0.607778
w 95 -94 -73 0.91146
w 96 95 74 1
w 96 95 -74 1
w 96 -95 74 0
w 96 -95 -74 1
w 97 96 75 0
w 97 96 -75 1
w 97 -96 75 1
w 97 -96 -75 1
w 98 97 76 0
w 98 97 -76 0
w 98 -97 76 1
w 98 -97 -76 0
w 99 98 77 0
w 99 98 -77 1
w 99 -98 77 1
w 99 -98 -77 0
w 100 99 78 0.972282
w 100 99 -78 0.897759
w 100 -99 78 0.142431
w 100 -99 -78 0.417699
w 101 100 79 0.461173
w 101 100 -79 0.118399
w 101 -100 79 0.404626
w 101 -100 -79 0.372633
w 102 101 80 1
w 102 101 -80 0
w 102 -101 80 0
w 102 -101 -80 0
w 103 102 81 1
w 103 102 -81 1
w 103 -102 81 0
w 103 -102 -81 1
w 104 103 82 1
w 104 103 -82 1
w 104 -103 82 0
w 104 -103 -82 1
w 105 104 83 0
w 105 104 -83 0
w 105 -104 83 0
w 105 -104 -83 1
w 106 105 84 0
w 106 105 -84 1
w 106 -105 84 1
w 106 -105 -84 1
w 107 106 85 1
w 107 106 -85 1
w 107 -106 85 1
w 107 -106 -85 0
w 108 107 86 1
w 108 107 -86 0
w 108 -107 86 0
w 108 -107 -86 1
w 109 108 87 0.671834
w 109 108 -87 0.406451
w 109 -108 87 0.604596
w 109 -108 -87 0.664612
w 110 109 88 1
w 110 109 -88 1
w 110 -109 88 0
w 110 -109 -88 1
w 111 89 1
w 111 -89 0
w 112 111 90 0
w 112 111 -90 0
w 112 -111 90 1
w 112 -111 -90 1
w 113 112 91 0.959887
w 113 112 -91 0.461294
w 113 -112 91 0.171353
w 113 -112 -91 0.366775
w 114 113 92 0
w 114 113 -92 1
w 114 -113 92 1
w 114 -113 -92 1
w 115 114 93 1
w 115 114 -93 0
w 115 -114 93 0
w 115 -114 -93 1
w 116 115 94 0
w 116 115 -94 1
w 116 -115 94 0
w 116 -115 -94 0
w 117 116 95 0
w 117 116 -95 1
w 117 -116 95 0
w 117 -116 -95 0
w 118 117 96 0.535942
w 118 117 -96 0.978815
w 118 -117 96 0.154395
w 118 -117 -96 0.229003
w 119 118 97 0.114282
w 119 118 -97 0.690297
w 119 -118 97 0.094694
w 119 -118 -97 0.481058
w 120 119 98 0
w 120 119 -98 1
w 120 -119 98 1
w 120 -119 -98 1
w 121 120 99 1
w 121 120 -99 1
w 121 -120 99 0
w 121 -120 -99 1
w 122 121 100 0
w 122 121 -100 0
w 122 -121 100 1
w 122 -121 -100 0
w 123 122 101 1
w 123 122 -101 0
w 123 -122 101 1
w 123 -122 -101 1
w 124 123 102 1
w 124 123 -102 1
w 124 -123 102 1
w 124 -123 -102 0
w 125 124 103 1
w 125 124 -103 0
w 125 -124 103 0
w 125 -124 -103 0
w 126 125 104 0
w 126 125 -104 1
w 126 -125 104 0
w 126 -125 -104 0
w 127 126 105 1
w 127 126 -105 0
w 127 -126 105 1
w 127 -126 -105 1
w 128 127 106 0.236651
w 128 127 -106 0.877826
w 128 -127 106 0.168411
w 128 -127 -106 0.912414
w 129 128 107 0.0939944
w 129 128 -107 0.755156
w 129 -128 107 0.198057
w 129 -128 -107 0.862996
w 130 129 108 1
w 130 129 -108 0
w 130 -129 108 1
w 130 -129 -108 0
w 131 130 109 1
w 131 130 -109 0
w 131 -130 109 1
w 131 -130 -109 0
w 132 131 110 0
w 132 131 -110 0
w 132 -131 110 1
w 132 -131 -110 1
w 133 111 1
w 133 -111 0
w 134 133 112 0.917834
w 134 133 -112 0.957397
w 134 -133 112 0.965184
w 134 -133 -112 0.705529
w 135 134 113 0
w 135 134 -113 1
w 135 -134 113 0
w 135 -134 -113 0
w 136 135 114 0.861619
w 136 135 -114 0.844666
w 136 -135 114 0.830931
w 136 -135 -114 0.264065
w 137 136 115 0.441744
w 137 136 -115 0.468197
w 137 -136 115 0.260983
w 137 -136 -115 0.723716
w 138 137 116 0
w 138 137 -116 1
w 138 -137 116 0
w 138 -137 -116 1
w 139 138 117 0
w 139 138 -117 0
w 139 -138 117 1
w 139 -138 -117 0
w 140 139 118 0
w 140 139 -118 1
w 140 -139 118 1
w 140 -139 -118 0
w 141 140 119 1
w 141 140 -119 0
w 141 -140 119 1
w 141 -140 -119 1
w 142 141 120 0.486137
w 142 141 -120 0.803965
w 142 -141 120 0.666604
w 142 -141 -120 0.750202
w 143 142 121 0.108348
w 143 142 -121 0.218399
w 143 -142 121 0.0380719
w 143 -142 -121 0.832064
w 144 143 122 0.436615
w 144 143 -122 0.603603
w 144 -143 122 0.912114
w 144 -143 -122 0.203418
w 145 144 123 0.591029
w 145 144 -123 0.242917
w 145 -144 123 0.455646
w 145 -144 -123 0.961465
w 146 145 124 0
w 146 145 -124 0
w 146 -145 124 1
w 146 -145 -124 1
w 147 146 125 1
w 147 146 -125 0
w 147 -146 125 0
w 147 -146 -125 0
w 148 147 126 0.562245
w 148 147 -126 0.505776
w 148 -147 126 0.613548
w 148 -147 -126 0.312447
w 149 148 127 0
w 149 148 -127 0
w 149 -148 127 1
w 149 -148 -127 0
w 150 149 128 0.157563
w 150 149 -128 0.249654
w 150 -149 128 0.96097
w 150 -149 -128 0.957655
w 151 150 129 0.203888
w 151 150 -129 0.413301
w 151 -150 129 0.802148
w 151 -150 -129 0.813415
w 152 151 130 0
w 152 151 -130 1
w 152 -151 130 0
w 152 -151 -130 0
w 153 152 131 0
w 153 152 -131 1
w 153 -152 131 1
w 153 -152 -131 0
w 154 153 132 0
w 154 153 -132 0
w 154 -153 132 1
w 154 -153 -132 0
w 155 133 1
w 155 -133 0
w 156 155 134 0
w 156 155 -134 0
w 156 -155 134 0
w 156 -155 -134 1
w 157 156 135 0
w 157 156 -135 1
w 157 -156 135 1
w 157 -156 -135 0
w 158 157 136 0
w 158 157 -136 0
w 158 -157 136 1
w 158 -157 -136 1
w 159 158 137 0.839942
w 159 158 -137 0.948259
w 159 -158 137 0.257512
w 159 -158 -137 0.0384825
w 160 159 138 1
w 160 159 -138 1
w 160 -159 138 0
w 160 -159 -138 0
w 161 160 139 1
w 161 160 -139 0
w 161 -160 139 1
w 161 -160 -139 1
w 162 161 140 0.888384
w 162 161 -140 0.917112
w 162 -161 140 0.997283
w 162 -161 -140 0.00310276
w 163 162 141 1
w 163 162 -141 0
w 163 -162 141 0
w 163 -162 -141 1
w 164 163 142 0
w 164 163 -142 1
w 164 -163 142 0
w 164 -163 -142 0
w 165 164 143 0
w 165 164 -143 1
w 165 -164 143 1
w 165 -164 -143 1
w 166 165 144 1
w 166 165 -144 0
w 166 -165 144 0
w 166 -165 -144 1
w 167 166 145 0.271411
w 167 166 -145 0.169585
w 167 -166 145 0.0923094
w 167 -166 -145 0.802629
w 168 167 146 0.0718643
w 168 167 -146 0.691013
w 168 -167 146 0.760775
w 168 -167 -146 0.0691476
w 169 168 147 0
w 169 168 -147 1
w 169 -168 147 1
w 169 -168 -147 1
w 170 169 148 0
w 170 169 -148 1
w 170 -169 148 0
w 170 -169 -148 0
w 171 170 149 0
w 171 170 -149 1
w 171 -170 149 0
w 171 -170 -149 0
w 172 171 150 1
w 172 171 -150 0
w 172 -171 150 1
w 172 -171 -150 0
w 173 172 151 0
w 173 172 -151 1
w 173 -172 151 0
w 173 -172 -151 0
w 174 173 152 0
w 174 173 -152 1
w 174 -173 152 0
w 174 -173 -152 0
w 175 174 153 0
w 175 174 -153 0
w 175 -174 153 0
w 175 -174 -153 1
w 176 175 154 0.509784
w 176 175 -154 0.897317
w 176 -175 154 0.902756
w 176 -175 -154 0.0924209
w 177 155 0
w 177 -155 1
w 178 177 156 0.0269805
w 178 177 -156 0.874384
w 178 -177 156 0.170085
w 178 -177 -156 0.396991
w 179 178 157 0.0167267
w 179 178 -157 0.543424
w 179 -178 157 0.866653
w 179 -178 -157 0.65631
w 180 179 158 0.124663
w 180 179 -158 0.388204
w 180 -179 158 0.181741
w 180 -179 -158 0.226335
w 181 180 159 0
w 181 180 -159 1
w 181 -180 159 1
w 181 -180 -159 1
w 182 181 160 1
w 182 181 -160 0
w 182 -181 160 1
w 182 -181 -160 1
w 183 182 161 1
w 183 182 -161 0
w 183 -182 161 0
w 183 -182 -161 0
w 184 183 162 1
w 184 183 -162 0
w 184 -183 162 1
w 184 -183 -162 1
w 185 184 163 0.832712
w 185 184 -163 0.281562
w 185 -184 163 0.744164
w 185 -184 -163 0.489023
w 186 185 164 1
w 186 185 -164 0
w 186 -185 164 0
w 186 -185 -164 0
w 187 186 165 1
w 187 186 -165 0
w 187 -186 165 1
w 187 -186 -165 0
w 188 187 166 0
w 188 187 -166 1
w 188 -187 166 0
w 188 -187 -166 0
w 189 188 167 0.561137
w 189 188 -167 0.678092
w 189 -188 167 0.560617
w 189 -188 -167 0.875303
w 190 189 168 0.206517
w 190 189 -168 0.21645
w 190 -189 168 0.00227162
w 190 -189 -168 0.0225027
w 191 190 169 0.879783
w 191 190 -169 0.855215
w 191 -190 169 0.23615
w 191 -190 -169 0.623947
w 192 191 170 0
w 192 191 -170 1
w 192 -191 170 1
w 192 -191 -170 0
w 193 192 171 0
w 193 192 -171 1
w 193 -192 171 0
w 193 -192 -171 1
w 194 193 172 1
w 194 193 -172 0
w 194 -193 172 0
w 194 -193 -172 0
w 195 194 173 1
w 195 194 -173 1
w 195 -194 173 1
w 195 -194 -173 0
w 196 195 174 1
w 196 195 -174 1
w 196 -195 174 0
w 196 -195 -174 1
w 197 196 175 1
w 197 196 -175 1
w 197 -196 175 1
w 197 -196 -175 0
w 198 197 176 1
w 198 197 -176 0
w 198 -197 176 0
w 198 -197 -176 0
w 199 177 0
w 199 -177 1
w 200 199 178 0
w 200 199 -178 0
w 200 -199 178 0
w 200 -199 -178 1
w 201 200 179 0
w 201 200 -179 1
w 201 -200 179 0
w 201 -200 -179 0
w 202 201 180 0.0890018
w 202 201 -180 0.328314
w 202 -201 180 0.116459
w 202 -201 -180 0.0909111
w 203 202 181 0.693629
w 203 202 -181 0.0950921
w 203 -202 181 0.511097
w 203 -202 -181 0.225386
w 204 203 182 0.968954
w 204 203 -182 0.993294
w 204 -203 182 0.486966
w 204 -203 -182 0.771049
w 205 204 183 0
w 205 204 -183 0
w 205 -204 183 0
w 205 -204 -183 1
w 206 205 184 0.436774
w 206 205 -184 0.847728
w 206 -205 184 0.172162
w 206 -205 -184 0.782817
w 207 206 185 0
w 207 206 -185 1
w 207 -206 185 1
w 207 -206 -185 1
w 208 207 186 0.496066
w 208 207 -186 0.596852
w 208 -207 186 0.925338
w 208 -207 -186 0.586977
w 209 208 187 0
w 209 208 -187 0
w 209 -208 187 1
w 209 -208 -187 0
w 210 209 188 1
w 210 209 -188 0
w 210 -209 188 0
w 210 -209 -188 0
w 211 210 189 1
w 211 210 -189 0
w 211 -210 189 1
w 211 -210 -189 0
w 212 211 190 0
w 212 211 -190 1
w 212 -211 190 1
w 212 -211 -190 1
w 213 212 191 0.916861
w 213 212 -191 0.984744
w 213 -212 191 0.331603
w 213 -212 -191 0.185399
w 214 213 192 0.827669
w 214 213 -192 0.782251
w 214 -213 192 0.718961
w 214 -213 -192 0.414647
w 215 214 193 1
w 215 214 -193 1
w 215 -214 193 0
w 215 -214 -193 1
w 216 215 194 1
w 216 215 -194 0
w 216 -215 194 0
w 216 -215 -194 1
w 217 216 195 1
w 217 216 -195 1
w 217 -216 195 0
w 217 -216 -195 1
w 218 217 196 0.402471
w 218 217 -196 0.764117
w 218 -217 196 0.600066
w 218 -217 -196 0.334075
w 219 218 197 0
w 219 218 -197 1
w 219 -218 197 1
w 219 -218 -197 0
w 220 219 198 1
w 220 219 -198 0
w 220 -219 198 0
w 220 -219 -198 1
w 221 199 0.16933
w 221 -199 0.359291
w 222 221 200 0
w 222 221 -200 0
w 222 -221 200 0
w 222 -221 -200 1
w 223 222 201 0
w 223 222 -201 1
w 223 -222 201 0
w 223 -222 -201 0
w 224 223 202 0.264419
w 224 223 -202 0.0325434
w 224 -223 202 0.220891
w 224 -223 -202 0.0285364
w 225 224 203 1
w 225 224 -203 0
w 225 -224 203 0
w 225 -224 -203 0
w 226 225 204 0
w 226 225 -204 1
w 226 -225 204 1
w 226 -225 -204 1
w 227 226 205 0.847955
w 227 226 -205 0.108571
w 227 -226 205 0.98696
w 227 -226 -205 0.207246
w 228 227 206 0
w 228 227 -206 1
w 228 -227 206 1
w 228 -227 -206 1
w 229 228 207 0
w 229 228 -207 1
w 229 -228 207 0
w 229 -228 -207 0
w 230 229 208 0
w 230 229 -208 1
w 230 -229 208 0
w 230 -229 -208 0
w 231 230 209 0
w 231 230 -209 1
w 231 -230 209 0
w 231 -230 -209 0
w 232 231 210 0
w 232 231 -210 0
w 232 -231 210 0
w 232 -231 -210 1
w 233 232 211 0
w 233 232 -211 1
w 233 -232 211 1
w 233 -232 -211 1
w 234 233 212 1
w 234 233 -212 0
w 234 -233 212 0
w 234 -233 -212 0
w 235 234 213 0
w 235 234 -213 1
w 235 -234 213 1
w 235 -234 -213 0
w 236 235 214 1
w 236 235 -214 1
w 236 -235 214 0
w 236 -235 -214 0
w 237 236 215 0
w 237 236 -215 1
w 237 -236 215 1
w 237 -236 -215 0
w 238 237 216 1
w 238 237 -216 1
w 238 -237 216 1
w 238 -237 -216 0
w 239 238 217 0.0605698
w 239 238 -217 0.634769
w 239 -238 217 0.196828
w 239 -238 -217 0.231627
w 240 239 218 0.707939
w 240 239 -218 0.741253
w 240 -239 218 0.673613
w 240 -239 -218 0.769116
w 241 240 219 0.702664
w 241 240 -219 0.791487
w 241 -240 219 0.360114
w 241 -240 -219 0.643892
w 242 241 220 0.974131
w 242 241 -220 0.315716
w 242 -241 220 0.00780265
w 242 -241 -220 0.835578
w 243 221 0.494703
w 243 -221 0.577065
w 244 243 222 1
w 244 243 -222 1
w 244 -243 222 1
w 244 -243 -222 0
w 245 244 223 1
w 245 244 -223 0
w 245 -244 223 1
w 245 -244 -223 0
w 246 245 224 0
w 246 245 -224 0
w 246 -245 224 1
w 246 -245 -224 0
w 247 246 225 0.544895
w 247 246 -225 0.449707
w 247 -246 225 0.631384
w 247 -246 -225 0.336382
w 248 247 226 0.275276
w 248 247 -226 0.119292
w 248 -247 226 0.783952
w 248 -247 -226 0.590992
w 249 248 227 1
w 249 248 -227 0
w 249 -248 227 0
w 249 -248 -227 0
w 250 249 228 1
w 250 249 -228 0
w 250 -249 228 0
w 250 -249 -228 0
w 251 250 229 0
w 251 250 -229 1
w 251 -250 229 1
w 251 -250 -229 1
w 252 251 230 0.872697
w 252 251 -230 0.259985
w 252 -251 230 0.384919
w 252 -251 -230 0.801417
w 253 252 231 0.834626
w 253 252 -231 0.432801
w 253 -252 231 0.141262
w 253 -252 -231 0.644448
w 254 253 232 0
w 254 253 -232 1
w 254 -253 232 0
w 254 -253 -232 0
w 255 254 233 0
w 255 254 -233 0
w 255 -254 233 1
w 255 -254 -233 1
w 256 255 234 0
w 256 255 -234 1
w 256 -255 234 1
w 256 -255 -234 1
w 257 256 235 1
w 257 256 -235 1
w 257 -256 235 0
w 257 -256 -235 1
w 258 257 236 1
w 258 257 -236 0
w 258 -257 236 1
w 258 -257 -236 0
w 259 258 237 0
w 259 258 -237 0
w 259 -258 237 1
w 259 -258 -237 0
w 260 259 238 0
w 260 259 -238 0
w 260 -259 238 0
w 260 -259 -238 1
w 261 260 239 0
w 261 260 -239 0
w 261 -260 239 0
w 261 -260 -239 1
w 262 261 240 1
w 262 261 -240 0
w 262 -261 240 0
w 262 -261 -240 1
w 263 262 241 1
w 263 262 -241 0
w 263 -262 241 1
w 263 -262 -241 0
w 264 263 242 1
w 264 263 -242 0
w 264 -263 242 1
w 264 -263 -242 0
w 265 243 0.346817
w 265 -243 0.496688
w 266 265 244 0
w 266 265 -244 0
w 266 -265 244 0
w 266 -265 -244 1
w 267 266 245 1
w 267 266 -245 0
w 267 -266 245 1
w 267 -266 -245 1
w 268 267 246 0.795962
w 268 267 -246 0.219099
w 268 -267 246 0.167872
w 268 -267 -246 0.805148
w 269 268 247 0
w 269 268 -247 0
w 269 -268 247 0
w 269 -268 -247 1
w 270 269 248 0.741186
w 270 269 -248 0.594271
w 270 -269 248 0.40561
w 270 -269 -248 0.585132
w 271 270 249 1
w 271 270 -249 0
w 271 -270 249 0
w 271 -270 -249 0
w 272 271 250 1
w 272 271 -250 0
w 272 -271 250 0
w 272 -271 -250 0
w 273 272 251 0
w 273 272 -251 0
w 273 -272 251 0
w 273 -272 -251 1
w 274 273 252 0.217122
w 274 273 -252 0.970222
w 274 -273 252 0.107308
w 274 -273 -252 0.0222708
w 275 274 253 1
w 275 274 -253 0
w 275 -274 253 1
w 275 -274 -253 1
w 276 275 254 0.0677441
w 276 275 -254 0.087096
w 276 -275 254 0.562718
w 276 -275 -254 0.473354
w 277 276 255 1
w 277 276 -255 1
w 277 -276 255 1
w 277 -276 -255 0
w 278 277 256 0
w 278 277 -256 1
w 278 -277 256 1
w 278 -277 -256 0
w 279 278 257 1
w 279 278 -257 0
w 279 -278 257 0
w 279 -278 -257 1
w 280 279 258 0
w 280 279 -258 1
w 280 -279 258 1
w 280 -279 -258 0
w 281 280 259 0
w 281 280 -259 0
w 281 -280 259 1
w 281 -280 -259 1
w 282 281 260 0.821543
w 282 281 -260 0.336635
w 282 -281 260 0.373335
w 282 -281 -260 0.294897
w 283 282 261 1
w 283 282 -261 0
w 283 -282 261 1
w 283 -282 -261 1
w 284 283 262 0.643302
w 284 283 -262 0.316133
w 284 -283 262 0.349341
w 284 -283 -262 0.169505
w 285 284 263 1
w 285 284 -263 1
w 285 -284 263 0
w 285 -284 -263 0
w 286 285 264 1
w 286 285 -264 0
w 286 -285 264 1
w 286 -285 -264 0
w 287 265 0.407255
w 287 -265 0.473387
w 288 287 266 0
w 288 287 -266 0
w 288 -287 266 1
w 288 -287 -266 0
w 289 288 267 1
w 289 288 -267 0
w 289 -288 267 1
w 289 -288 -267 1
w 290 289 268 0
w 290 289 -268 0
w 290 -289 268 0
w 290 -289 -268 1
w 291 290 269 0
w 291 290 -269 1
w 291 -290 269 0
w 291 -290 -269 1
w 292 291 270 0
w 292 291 -270 1
w 292 -291 270 1
w 292 -291 -270 1
w 293 292 271 1
w 293 292 -271 0
w 293 -292 271 1
w 293 -292 -271 0
w 294 293 272 1
w 294 293 -272 1
w 294 -293 272 0
w 294 -293 -272 0
w 295 294 273 0.685559
w 295 294 -273 0.348669
w 295 -294 273 0.932951
w 295 -294 -273 0.100158
w 296 295 274 0
w 296 295 -274 1
w 296 -295 274 0
w 296 -295 -274 1
w 297 296 275 1
w 297 296 -275 1
w 297 -296 275 0
w 297 -296 -275 0
w 298 297 276 0.153073
w 298 297 -276 0.651616
w 298 -297 276 0.544224
w 298 -297 -276 0.19197
w 299 298 277 0.0644902
w 299 298 -277 0.800624
w 299 -298 277 0.670003
w 299 -298 -277 0.992011
w 300 299 278 0.159346
w 300 299 -278 0.0805872
w 300 -299 278 0.687631
w 300 -299 -278 0.0601298
w 301 300 279 0
w 301 300 -279 1
w 301 -300 279 1
w 301 -300 -279 0
w 302 301 280 0.0738214
w 302 301 -280 0.099525
w 302 -301 280 0.437375
w 302 -301 -280 0.865138
w 303 302 281 0
w 303 302 -281 0
w 303 -302 281 1
w 303 -302 -281 0
w 304 303 282 1
w 304 303 -282 0
w 304 -303 282 0
w 304 -303 -282 0
w 305 304 283 0
w 305 304 -283 1
w 305 -304 283 1
w 305 -304 -283 1
w 306 305 284 0.425467
w 306 305 -284 0.43369
w 306 -305 284 0.966346
w 306 -305 -284 0.113098
w 307 306 285 0
w 307 306 -285 1
w 307 -306 285 1
w 307 -306 -285 1
w 308 307 286 0
w 308 307 -286 1
w 308 -307 286 0
w 308 -307 -286 1
w 309 287 0
w 309 -287 1
w 310 309 288 0
w 310 309 -288 1
w 310 -309 288 1
w 310 -309 -288 0
w 311 310 289 1
w 311 310 -289 0
w 311 -310 289 0
w 311 -310 -289 0
w 312 311 290 1
w 312 311 -290 0
w 312 -311 290 0
w 312 -311 -290 0
w 313 312 291 0
w 313 312 -291 1
w 313 -312 291 1
w 313 -312 -291 0
w 314 313 292 0
w 314 313 -292 0
w 314 -313 292 0
w 314 -313 -292 1
w 315 314 293 0.0499009
w 315 314 -293 0.195544
w 315 -314 293 0.429104
w 315 -314 -293 0.607397
w 316 315 294 1
w 316 315 -294 0
w 316 -315 294 0
w 316 -315 -294 0
w 317 316 295 0
w 317 316 -295 0
w 317 -316 295 0
w 317 -316 -295 1
w 318 317 296 0.496054
w 318 317 -296 0.934525
w 318 -317 296 0.491117
w 318 -317 -296 0.150057
w 319 318 297 1
w 319 318 -297 1
w 319 -318 297 0
w 319 -318 -297 0
w 320 319 298 0.948983
w 320 319 -298 0.433359
w 320 -319 298 0.640285
w 320 -319 -298 0.306525
w 321 320 299 0
w 321 320 -299 1
w 321 -320 299 1
w 321 -320 -299 1
w 322 321 300 0.0586979
w 322 321 -300 0.764005
w 322 -321 300 0.35244
w 322 -321 -300 0.303595
w 323 322 301 1
w 323 322 -301 0
w 323 -322 301 1
w 323 -322 -301 0
w 324 323 302 0.0591688
w 324 323 -302 0.305965
w 324 -323 302 0.694536
w 324 -323 -302 0.550286
w 325 324 303 1
w 325 324 -303 0
w 325 -324 303 1
w 325 -324 -303 1
w 326 325 304 0
w 326 325 -304 1
w 326 -325 304 1
w 326 -325 -304 1
w 327 326 305 1
w 327 326 -305 1
w 327 -326 305 0
w 327 -326 -305 1
w 328 327 306 0
w 328 327 -306 1
w 328 -327 306 0
w 328 -327 -306 0
w 329 328 307 1
w 329 328 -307 0
w 329 -328 307 1
w 329 -328 -307 1
w 330 329 308 0.966951
w 330 329 -308 0.231178
w 330 -329 308 0.494455
w 330 -329 -308 0.517237
w 331 309 1
w 331 -309 0
w 332 331 310 0
w 332 331 -310 0
w 332 -331 310 1
w 332 -331 -310 1
w 333 332 311 0
w 333 332 -311 1
w 333 -332 311 1
w 333 -332 -311 0
w 334 333 312 0
w 334 333 -312 0
w 334 -333 312 1
w 334 -333 -312 1
w 335 334 313 1
w 335 334 -313 1
w 335 -334 313 0
w 335 -334 -313 1
w 336 335 314 1
w 336 335 -314 1
w 336 -335 314 0
w 336 -335 -314 1
w 337 336 315 0
w 337 336 -315 1
w 337 -336 315 1
w 337 -336 -315 1
w 338 337 316 1
w 338 337 -316 1
w 338 -337 316 0
w 338 -337 -316 0
w 339 338 317 0
w 339 338 -317 0
w 339 -338 317 1
w 339 -338 -317 1
w 340 339 318 0
w 340 339 -318 0
w 340 -339 318 1
w 340 -339 -318 1
w 341 340 319 1
w 341 340 -319 0
w 341 -340 319 0
w 341 -340 -319 0
w 342 341 320 0.585405
w 342 341 -320 0.49554
w 342 -341 320 0.504295
w 342 -341 -320 0.685907
w 343 342 321 0.990101
w 343 342 -321 0.0175886
w 343 -342 321 0.832677
w 343 -342 -321 0.993144
w 344 343 322 1
w 344 343 -322 0
w 344 -343 322 1
w 344 -343 -322 1
w 345 344 323 1
w 345 344 -323 1
w 345 -344 323 1
w 345 -344 -323 0
w 346 345 324 0.159891
w 346 345 -324 0.0268259
w 346 -345 324 0.994251
w 346 -345 -324 0.671452
w 347 346 325 0
w 347 346 -325 1
w 347 -346 325 1
w 347 -346 -325 0
w 348 347 326 0
w 348 347 -326 1
w 348 -347 326 0
w 348 -347 -326 0
w 349 348 327 1
w 349 348 -327 1
w 349 -348 327 0
w 349 -348 -327 1
w 350 349 328 1
w 350 349 -328 0
w 350 -349 328 0
w 350 -349 -328 0
w 351 350 329 0
w 351 350 -329 1
w 351 -350 329 0
w 351 -350 -329 1
w 352 351 330 0.0251214
w 352 351 -330 0.510235
w 352 -351 330 0.93821
w 352 -351 -330 0.0193725
w 353 331 1
w 353 -331 0
w 354 353 332 1
w 354 353 -332 1
w 354 -353 332 0
w 354 -353 -332 0
w 355 354 333 1
w 355 354 -333 0
w 355 -354 333 1
w 355 -354 -333 0
w 356 355 334 1
w 356 355 -334 0
w 356 -355 334 0
w 356 -355 -334 0
w 357 356 335 0
w 357 356 -335 1
w 357 -356 335 1
w 357 -356 -335 1
w 358 357 336 0
w 358 357 -336 1
w 358 -357 336 0
w 358 -357 -336 1
w 359 358 337 0
w 359 358 -337 1
w 359 -358 337 1
w 359 -358 -337 0
w 360 359 338 1
w 360 359 -338 0
w 360 -359 338 0
w 360 -359 -338 1
w 361 360 339 1
w 361 360 -339 0
w 361 -360 339 1
w 361 -360 -339 0
w 362 361 340 0
w 362 361 -340 1
w 362 -361 340 0
w 362 -361 -340 1
w 363 362 341 1
w 363 362 -341 1
w 363 -362 341 1
w 363 -362 -341 0
w 364 363 342 0
w 364 363 -342 1
w 364 -363 342 0
w 364 -363 -342 0
w 365 364 343 0
w 365 364 -343 1
w 365 -364 343 0
w 365 -364 -343 0
w 366 365 344 1
w 366 365 -344 0
w 366 -365 344 0
w 366 -365 -344 0
w 367 366 345 1
w 367 366 -345 0
w 367 -366 345 0
w 367 -366 -345 1
w 368 367 346 0
w 368 367 -346 1
w 368 -367 346 0
w 368 -367 -346 1
w 369 368 347 1
w 369 368 -347 1
w 369 -368 347 0
w 369 -368 -347 1
w 370 369 348 0
w 370 369 -348 1
w 370 -369 348 0
w 370 -369 -348 0
w 371 370 349 1
w 371 370 -349 0
w 371 -370 349 0
w 371 -370 -349 0
w 372 371 350 0.159658
w 372 371 -350 0.25047
w 372 -371 350 0.261008
w 372 -371 -350 0.949307
w 373 372 351 1
w 373 372 -351 1
w 373 -372 351 0
w 373 -372 -351 0
w 374 373 352 0.0253353
w 374 373 -352 0.297189
w 374 -373 352 0.941244
w 374 -373 -352 0.399858
w 375 353 1
w 375 -353 0
w 376 375 354 0
w 376 375 -354 1
w 376 -375 354 1
w 376 -375 -354 0
w 377 376 355 0.240793
w 377 376 -355 0.755471
w 377 -376 355 0.922694
w 377 -376 -355 0.697119
w 378 377 356 1
w 378 377 -356 0
w 378 -377 356 1
w 378 -377 -356 1
w 379 378 357 0
w 379 378 -357 1
w 379 -378 357 0
w 379 -378 -357 0
w 380 379 358 1
w 380 379 -358 0
w 380 -379 358 1
w 380 -379 -358 1
w 381 380 359 0.576536
w 381 380 -359 0.815406
w 381 -380 359 0.357449
w 381 -380 -359 0.952565
w 382 381 360 1
w 382 381 -360 1
w 382 -381 360 1
w 382 -381 -360 0
w 383 382 361 0
w 383 382 -361 0
w 383 -382 361 0
w 383 -382 -361 1
w 384 383 362 1
w 384 383 -362 1
w 384 -383 362 1
w 384 -383 -362 0
w 385 384 363 1
w 385 384 -363 0
w 385 -384 363 0
w 385 -384 -363 0
w 386 385 364 0.484829
w 386 385 -364 0.248823
w 386 -385 364 0.771307
w 386 -385 -364 0.764176
w 387 386 365 0
w 387 386 -365 0
w 387 -386 365 1
w 387 -386 -365 1
w 388 387 366 0
w 388 387 -366 0
w 388 -387 366 0
w 388 -387 -366 1
w 389 388 367 0
w 389 388 -367 1
w 389 -388 367 1
w 389 -388 -367 1
w 390 389 368 0
w 390 389 -368 0
w 390 -389 368 1
w 390 -389 -368 0
w 391 390 369 1
w 391 390 -369 0
w 391 -390 369 0
w 391 -390 -369 1
w 392 391 370 1
w 392 391 -370 1
w 392 -391 370 0
w 392 -391 -370 0
w 393 392 371 0
w 393 392 -371 0
w 393 -392 371 1
w 393 -392 -371 1
w 394 393 372 1
w 394 393 -372 0
w 394 -393 372 0
w 394 -393 -372 0
w 395 394 373 0
w 395 394 -373 0
w 395 -394 373 0
w 395 -394 -373 1
w 396 395 374 0.624055
w 396 395 -374 0.0257643
w 396 -395 374 0.371814
w 396 -395 -374 0.688053
w 397 375 1
w 397 -375 0
w 398 397 376 1
w 398 397 -376 0
w 398 -397 376 1
w 398 -397 -376 1
w 399 398 377 0
w 399 398 -377 1
w 399 -398 377 1
w 399 -398 -377 0
w 400 399 378 0
w 400 399 -378 1
w 400 -399 378 1
w 400 -399 -378 1
w 401 400 379 1
w 401 400 -379 1
w 401 -400 379 0
w 401 -400 -379 0
w 402 401 380 0
w 402 401 -380 0
w 402 -401 380 1
w 402 -401 -380 1
w 403 402 381 1
w 403 402 -381 0
w 403 -402 381 1
w 403 -402 -381 0
w 404 403 382 1
w 404 403 -382 0
w 404 -403 382 0
w 404 -403 -382 1
w 405 404 383 1
w 405 404 -383 1
w 405 -404 383 1
w 405 -404 -383 0
w 406 405 384 1
w 406 405 -384 0
w 406 -405 384 0
w 406 -405 -384 0
w 407 406 385 0
w 407 406 -385 0
w 407 -406 385 1
w 407 -406 -385 1
w 408 407 386 1
w 408 407 -386 0
w 408 -407 386 1
w 408 -407 -386 1
w 409 408 387 0
w 409 408 -387 1
w 409 -408 387 1
w 409 -408 -387 0
w 410 409 388 1
w 410 409 -388 0
w 410 -409 388 1
w 410 -409 -388 0
w 411 410 389 0
w 411 410 -389 1
w 411 -410 389 1
w 411 -410 -389 1
w 412 411 390 0
w 412 411 -390 1
w 412 -411 390 1
w 412 -411 -390 0
w 413 412 391 0
w 413 412 -391 0
w 413 -412 391 1
w 413 -412 -391 1
w 414 413 392 0
w 414 413 -392 0
w 414 -413 392 0
w 414 -413 -392 1
w 415 414 393 0
w 415 414 -393 1
w 415 -414 393 1
w 415 -414 -393 1
w 416 415 394 0.282993
w 416 415 -394 0.884917
w 416 -415 394 0.781792
w 416 -415 -394 0.824846
w 417 416 395 0
w 417 416 -395 0
w 417 -416 395 0
w 417 -416 -395 1
w 418 417 396 1
w 418 417 -396 1
w 418 -417 396 1
w 418 -417 -396 0
w 419 397 0
w 419 -397 1
w 420 419 398 0
w 420 419 -398 1
w 420 -419 398 1
w 420 -419 -398 1
w 421 420 399 0
w 421 420 -399 1
w 421 -420 399 1
w 421 -420 -399 1
w 422 421 400 0.429063
w 422 421 -400 0.0835706
w 422 -421 400 0.0695683
w 422 -421 -400 0.20399
w 423 422 401 1
w 423 422 -401 1
w 423 -422 401 1
w 423 -422 -401 0
w 424 423 402 1
w 424 423 -402 0
w 424 -423 402 1
w 424 -423 -402 1
w 425 424 403 1
w 425 424 -403 0
w 425 -424 403 1
w 425 -424 -403 1
w 426 425 404 0
w 426 425 -404 1
w 426 -425 404 0
w 426 -425 -404 1
w 427 426 405 0
w 427 426 -405 1
w 427 -426 405 0
w 427 -426 -405 1
w 428 427 406 0
w 428 427 -406 0
w 428 -427 406 1
w 428 -427 -406 1
w 429 428 407 0
w 429 428 -407 0
w 429 -428 407 1
w 429 -428 -407 1
w 430 429 408 0.487269
w 430 429 -408 0.599166
w 430 -429 408 0.177899
w 430 -429 -408 0.619858
w 431 430 409 1
w 431 430 -409 1
w 431 -430 409 0
w 431 -430 -409 1
w 432 431 410 0.39838
w 432 431 -410 0.431552
w 432 -431 410 0.190443
w 432 -431 -410 0.417204
w 433 432 411 1
w 433 432 -411 0
w 433 -432 411 0
w 433 -432 -411 1
w 434 433 412 1
w 434 433 -412 1
w 434 -433 412 0
w 434 -433 -412 0
w 435 434 413 0
w 435 434 -413 1
w 435 -434 413 1
w 435 -434 -413 1
w 436 435 414 1
w 436 435 -414 0
w 436 -435 414 1
w 436 -435 -414 0
w 437 436 415 1
w 437 436 -415 1
w 437 -436 415 0
w 437 -436 -415 1
w 438 437 416 0.174819
w 438 437 -416 0.248216
w 438 -437 416 0.351324
w 438 -437 -416 0.365262
w 439 438 417 0
w 439 438 -417 1
w 439 -438 417 1
w 439 -438 -417 0
w 440 439 418 1
w 440 439 -418 1
w 440 -439 418 0
w 440 -439 -418 1
w 441 419 0.441056
w 441 -419 0.396005
w 442 441 420 0.106071
w 442 441 -420 0.035202
w 442 -441 420 0.185138
w 442 -441 -420 0.655795
w 443 442 421 0
w 443 442 -421 1
w 443 -442 421 1
w 443 -442 -421 0
w 444 443 422 0.136872
w 444 443 -422 0.995133
w 444 -443 422 0.728058
w 444 -443 -422 0.311691
w 445 444 423 1
w 445 444 -423 0
w 445 -444 423 0
w 445 -444 -423 1
w 446 445 424 0.0950044
w 446 445 -424 0.349143
w 446 -445 424 0.298435
w 446 -445 -424 0.661411
w 447 446 425 1
w 447 446 -425 1
w 447 -446 425 1
w 447 -446 -425 0
w 448 447 426 0
w 448 447 -426 0
w 448 -447 426 1
w 448 -447 -426 1
w 449 448 427 0
w 449 448 -427 1
w 449 -448 427 1
w 449 -448 -427 1
w 450 449 428 0
w 450 449 -428 0
w 450 -449 428 1
w 450 -449 -428 1
w 451 450 429 0.953794
w 451 450 -429 0.715646
w 451 -450 429 0.522796
w 451 -450 -429 0.862563
w 452 451 430 0.347373
w 452 451 -430 0.957568
w 452 -451 430 0.185901
w 452 -451 -430 0.645808
w 453 452 431 0
w 453 452 -431 0
w 453 -452 431 1
w 453 -452 -431 0
w 454 453 432 0
w 454 453 -432 0
w 454 -453 432 0
w 454 -453 -432 1
w 455 454 433 0.891237
w 455 454 -433 0.624713
w 455 -454 433 0.40444
w 455 -454 -433 0.991159
w 456 455 434 0
w 456 455 -434 1
w 456 -455 434 0
w 456 -455 -434 1
w 457 456 435 0
w 457 456 -435 1
w 457 -456 435 1
w 457 -456 -435 1
w 458 457 436 0
w 458 457 -436 0
w 458 -457 436 1
w 458 -457 -436 1
w 459 458 437 0.2231
w 459 458 -437 0.96525
w 459 -458 437 0.0773521
w 459 -458 -437 0.738491
w 460 459 438 1
w 460 459 -438 0
w 460 -459 438 1
w 460 -459 -438 1
w 461 460 439 0
w 461 460 -439 1
w 461 -460 439 1
w 461 -460 -439 1
w 462 461 440 1
w 462 461 -440 1
w 462 -461 440 1
w 462 -461 -440 0
w 463 441 0
w 463 -441 1
w 464 463 442 1
w 464 463 -442 1
w 464 -463 442 1
w 464 -463 -442 0
w 465 464 443 1
w 465 464 -443 0
w 465 -464 443 0
w 465 -464 -443 0
w 466 465 444 0
w 466 465 -444 0
w 466 -465 444 1
w 466 -465 -444 1
w 467 466 445 1
w 467 466 -445 1
w 467 -466 445 0
w 467 -466 -445 1
w 468 467 446 0
w 468 467 -446 1
w 468 -467 446 0
w 468 -467 -446 1
w 469 468 447 0
w 469 468 -447 1
w 469 -468 447 0
w 469 -468 -447 0
w 470 469 448 1
w 470 469 -448 1
w 470 -469 448 0
w 470 -469 -448 1
w 471 470 449 1
w 471 470 -449 0
w 471 -470 449 1
w 471 -470 -449 1
w 472 471 450 1
w 472 471 -450 1
w 472 -471 450 0
w 472 -471 -450 1
w 473 472 451 0.946642
w 473 472 -451 0.0763481
w 473 -472 451 0.244385
w 473 -472 -451 0.116187
w 474 473 452 0.786549
w 474 473 -452 0.614164
w 474 -473 452 0.399651
w 474 -473 -452 0.476589
w 475 474 453 0.604448
w 475 474 -453 0.850133
w 475 -474 453 0.665828
w 475 -474 -453 0.232063
w 476 475 454 1
w 476 475 -454 0
w 476 -475 454 1
w 476 -475 -454 0
w 477 476 455 1
w 477 476 -455 0
w 477 -476 455 1
w 477 -476 -455 0
w 478 477 456 0.468753
w 478 477 -456 0.231258
w 478 -477 456 0.834315
w 478 -477 -456 0.552289
w 479 478 457 0
w 479 478 -457 1
w 479 -478 457 1
w 479 -478 -457 1
w 480 479 458 1
w 480 479 -458 1
w 480 -479 458 0
w 480 -479 -458 0
w 481 480 459 0
w 481 480 -459 1
w 481 -480 459 0
w 481 -480 -459 1
w 482 481 460 1
w 482 481 -460 0
w 482 -481 460 0
w 482 -481 -460 0
w 483 482 461 0
w 483 482 -461 1
w 483 -482 461 1
w 483 -482 -461 1
w 484 483 462 0.9439
w 484 483 -462 0.649275
w 484 -483 462 0.14687
w 484 -483 -462 0.778215